Minimize
	value: tt

Subject to
tt + 1000 s_1_1 > 0.0
tt - t_1_1 - 1001.236388 s_1_1  + 1.236388 s_1_7  > -991.179933
tt + 1000 s_2_1 > 0.0
tt - t_2_1 - 1001.118223 s_2_1  + 1.118223 s_2_7  > -993.352782
tt + 1000 s_1_2 > 0.0
tt - t_1_2 - 1001.236388 s_1_2  + 1.236388 s_1_8  > -989.711500
tt + 1000 s_2_2 > 0.0
tt - t_2_2 - 1001.118223 s_2_2  + 1.118223 s_2_8  > -992.990175
tt + 1000 s_1_3 > 0.0
tt - t_1_3 - 1001.236388 s_1_3  + 1.236388 s_1_8  > -985.804000
tt + 1000 s_2_3 > 0.0
tt - t_2_3 - 1001.118223 s_2_3  + 1.118223 s_2_8  > -990.442153
tt + 1000 s_1_4 > 0.0
tt - t_1_4 - 1002.472776 s_1_4  + 1.236388 s_1_3  + 1.236388 s_1_8  > -992.322056
tt + 1000 s_2_4 > 0.0
tt - t_2_4 - 1002.236446 s_2_4  + 1.118223 s_2_3  + 1.118223 s_2_8  > -993.894889
tt + 1000 s_1_5 > 0.0
tt - t_1_5 - 1002.472776 s_1_5  + 1.236388 s_1_7  + 1.236388 s_1_8  > -993.354856
tt + 1000 s_2_5 > 0.0
tt - t_2_5 - 1002.236446 s_2_5  + 1.118223 s_2_7  + 1.118223 s_2_8  > -995.020594
tt + 1000 s_1_6 > 0.0
tt - t_1_6 - 1006.181939 s_1_6  + 1.236388 s_1_3  + 1.236388 s_1_1  + 1.236388 s_1_5  + 1.236388 s_1_2  + 1.236388 s_1_4  > -997.449900
tt + 1000 s_2_6 > 0.0
tt - t_2_6 - 1005.591116 s_2_6  + 1.118223 s_2_3  + 1.118223 s_2_1  + 1.118223 s_2_5  + 1.118223 s_2_2  + 1.118223 s_2_4  > -979.763900
tt + 1000 s_1_7 > 0.0
tt - t_1_7 - 1000.000000 s_1_7  > -981.705500
tt + 1000 s_2_7 > 0.0
tt - t_2_7 - 1000.000000 s_2_7  > -991.402857
tt + 1000 s_1_8 > 0.0
tt - t_1_8 - 1000.000000 s_1_8  > -982.018478
tt + 1000 s_2_8 > 0.0
tt - t_2_8 - 1000.000000 s_2_8  > -990.719062
s_1_1 + s_2_1 = 1
s_1_2 + s_2_2 = 1
s_1_3 + s_2_3 = 1
s_1_4 + s_2_4 = 1
s_1_5 + s_2_5 = 1
s_1_6 + s_2_6 = 1
s_1_7 + s_2_7 = 1
s_1_8 + s_2_8 = 1
s_1_1 + s_1_2 + 1000 r_1_1_2 >= 2
- s_1_1 - s_1_2 - 1000 r_1_1_2 >= -1001
t_1_1 - t_1_2 - 1000.000000 u_1_1_2 - 1.236388 s_1_2  + 1.236388 s_1_8  + 2000.000000 r_1_1_2 > -989.711500
s_2_1 + s_2_2 + 1000 r_2_1_2 >= 2
- s_2_1 - s_2_2 - 1000 r_2_1_2 >= -1001
t_2_1 - t_2_2 - 1000.000000 u_2_1_2 - 1.118223 s_2_2  + 1.118223 s_2_8  + 2000.000000 r_2_1_2 > -992.990175
s_1_1 + s_1_3 + 1000 r_1_1_3 >= 2
- s_1_1 - s_1_3 - 1000 r_1_1_3 >= -1001
t_1_1 - t_1_3 - 1000.000000 u_1_1_3 - 1.236388 s_1_3  + 1.236388 s_1_8  + 2000.000000 r_1_1_3 > -985.804000
s_2_1 + s_2_3 + 1000 r_2_1_3 >= 2
- s_2_1 - s_2_3 - 1000 r_2_1_3 >= -1001
t_2_1 - t_2_3 - 1000.000000 u_2_1_3 - 1.118223 s_2_3  + 1.118223 s_2_8  + 2000.000000 r_2_1_3 > -990.442153
s_1_1 + s_1_4 + 1000 r_1_1_4 >= 2
- s_1_1 - s_1_4 - 1000 r_1_1_4 >= -1001
t_1_1 - t_1_4 - 1000.000000 u_1_1_4 - 2.472776 s_1_4  + 1.236388 s_1_3  + 1.236388 s_1_8  + 2000.000000 r_1_1_4 > -992.322056
s_2_1 + s_2_4 + 1000 r_2_1_4 >= 2
- s_2_1 - s_2_4 - 1000 r_2_1_4 >= -1001
t_2_1 - t_2_4 - 1000.000000 u_2_1_4 - 2.236446 s_2_4  + 1.118223 s_2_3  + 1.118223 s_2_8  + 2000.000000 r_2_1_4 > -993.894889
s_1_1 + s_1_5 + 1000 r_1_1_5 >= 2
- s_1_1 - s_1_5 - 1000 r_1_1_5 >= -1001
t_1_1 - t_1_5 - 1000.000000 u_1_1_5 - 2.472776 s_1_5  + 1.236388 s_1_7  + 1.236388 s_1_8  + 2000.000000 r_1_1_5 > -993.354856
s_2_1 + s_2_5 + 1000 r_2_1_5 >= 2
- s_2_1 - s_2_5 - 1000 r_2_1_5 >= -1001
t_2_1 - t_2_5 - 1000.000000 u_2_1_5 - 2.236446 s_2_5  + 1.118223 s_2_7  + 1.118223 s_2_8  + 2000.000000 r_2_1_5 > -995.020594
t_1_6 - t_1_1 - 1001.236388 s_1_1  + 1.236388 s_1_7  > -991.179933
t_1_6 - t_2_1 - 1001.118223 s_2_1  + 1.118223 s_2_7  > -993.352782
t_2_6 - t_1_1 - 1001.236388 s_1_1  + 1.236388 s_1_7  > -991.179933
t_2_6 - t_2_1 - 1001.118223 s_2_1  + 1.118223 s_2_7  > -993.352782
t_1_1 - t_1_7 - 1000.000000 s_1_7  > -981.705500
t_1_1 - t_2_7 - 1000.000000 s_2_7  > -991.402857
t_2_1 - t_1_7 - 1000.000000 s_1_7  > -981.705500
t_2_1 - t_2_7 - 1000.000000 s_2_7  > -991.402857
s_1_1 + s_1_8 + 1000 r_1_1_8 >= 2
- s_1_1 - s_1_8 - 1000 r_1_1_8 >= -1001
t_1_1 - t_1_8 - 1000.000000 u_1_1_8 - 0.000000 s_1_8  + 2000.000000 r_1_1_8 > -982.018478
s_2_1 + s_2_8 + 1000 r_2_1_8 >= 2
- s_2_1 - s_2_8 - 1000 r_2_1_8 >= -1001
t_2_1 - t_2_8 - 1000.000000 u_2_1_8 - 0.000000 s_2_8  + 2000.000000 r_2_1_8 > -990.719062
s_1_2 + s_1_1 + 1000 r_1_1_2 >= 2
- s_1_2 - s_1_1 - 1000 r_1_1_2 >= -1001
t_1_2 - t_1_1 + 1000.000000 u_1_1_2 - 1.236388 s_1_1  + 1.236388 s_1_7  + 2000.000000 r_1_1_2 > 8.820067
s_2_2 + s_2_1 + 1000 r_2_1_2 >= 2
- s_2_2 - s_2_1 - 1000 r_2_1_2 >= -1001
t_2_2 - t_2_1 + 1000.000000 u_2_1_2 - 1.118223 s_2_1  + 1.118223 s_2_7  + 2000.000000 r_2_1_2 > 6.647218
s_1_2 + s_1_3 + 1000 r_1_2_3 >= 2
- s_1_2 - s_1_3 - 1000 r_1_2_3 >= -1001
t_1_2 - t_1_3 - 1000.000000 u_1_2_3 - 1.236388 s_1_3  + 1.236388 s_1_8  + 2000.000000 r_1_2_3 > -985.804000
s_2_2 + s_2_3 + 1000 r_2_2_3 >= 2
- s_2_2 - s_2_3 - 1000 r_2_2_3 >= -1001
t_2_2 - t_2_3 - 1000.000000 u_2_2_3 - 1.118223 s_2_3  + 1.118223 s_2_8  + 2000.000000 r_2_2_3 > -990.442153
s_1_2 + s_1_4 + 1000 r_1_2_4 >= 2
- s_1_2 - s_1_4 - 1000 r_1_2_4 >= -1001
t_1_2 - t_1_4 - 1000.000000 u_1_2_4 - 2.472776 s_1_4  + 1.236388 s_1_3  + 1.236388 s_1_8  + 2000.000000 r_1_2_4 > -992.322056
s_2_2 + s_2_4 + 1000 r_2_2_4 >= 2
- s_2_2 - s_2_4 - 1000 r_2_2_4 >= -1001
t_2_2 - t_2_4 - 1000.000000 u_2_2_4 - 2.236446 s_2_4  + 1.118223 s_2_3  + 1.118223 s_2_8  + 2000.000000 r_2_2_4 > -993.894889
s_1_2 + s_1_5 + 1000 r_1_2_5 >= 2
- s_1_2 - s_1_5 - 1000 r_1_2_5 >= -1001
t_1_2 - t_1_5 - 1000.000000 u_1_2_5 - 2.472776 s_1_5  + 1.236388 s_1_7  + 1.236388 s_1_8  + 2000.000000 r_1_2_5 > -993.354856
s_2_2 + s_2_5 + 1000 r_2_2_5 >= 2
- s_2_2 - s_2_5 - 1000 r_2_2_5 >= -1001
t_2_2 - t_2_5 - 1000.000000 u_2_2_5 - 2.236446 s_2_5  + 1.118223 s_2_7  + 1.118223 s_2_8  + 2000.000000 r_2_2_5 > -995.020594
t_1_6 - t_1_2 - 1001.236388 s_1_2  + 1.236388 s_1_8  > -989.711500
t_1_6 - t_2_2 - 1001.118223 s_2_2  + 1.118223 s_2_8  > -992.990175
t_2_6 - t_1_2 - 1001.236388 s_1_2  + 1.236388 s_1_8  > -989.711500
t_2_6 - t_2_2 - 1001.118223 s_2_2  + 1.118223 s_2_8  > -992.990175
s_1_2 + s_1_7 + 1000 r_1_2_7 >= 2
- s_1_2 - s_1_7 - 1000 r_1_2_7 >= -1001
t_1_2 - t_1_7 - 1000.000000 u_1_2_7 - 0.000000 s_1_7  + 2000.000000 r_1_2_7 > -981.705500
s_2_2 + s_2_7 + 1000 r_2_2_7 >= 2
- s_2_2 - s_2_7 - 1000 r_2_2_7 >= -1001
t_2_2 - t_2_7 - 1000.000000 u_2_2_7 - 0.000000 s_2_7  + 2000.000000 r_2_2_7 > -991.402857
t_1_2 - t_1_8 - 1000.000000 s_1_8  > -982.018478
t_1_2 - t_2_8 - 1000.000000 s_2_8  > -990.719062
t_2_2 - t_1_8 - 1000.000000 s_1_8  > -982.018478
t_2_2 - t_2_8 - 1000.000000 s_2_8  > -990.719062
s_1_3 + s_1_1 + 1000 r_1_1_3 >= 2
- s_1_3 - s_1_1 - 1000 r_1_1_3 >= -1001
t_1_3 - t_1_1 + 1000.000000 u_1_1_3 - 1.236388 s_1_1  + 1.236388 s_1_7  + 2000.000000 r_1_1_3 > 8.820067
s_2_3 + s_2_1 + 1000 r_2_1_3 >= 2
- s_2_3 - s_2_1 - 1000 r_2_1_3 >= -1001
t_2_3 - t_2_1 + 1000.000000 u_2_1_3 - 1.118223 s_2_1  + 1.118223 s_2_7  + 2000.000000 r_2_1_3 > 6.647218
s_1_3 + s_1_2 + 1000 r_1_2_3 >= 2
- s_1_3 - s_1_2 - 1000 r_1_2_3 >= -1001
t_1_3 - t_1_2 + 1000.000000 u_1_2_3 - 1.236388 s_1_2  + 1.236388 s_1_8  + 2000.000000 r_1_2_3 > 10.288500
s_2_3 + s_2_2 + 1000 r_2_2_3 >= 2
- s_2_3 - s_2_2 - 1000 r_2_2_3 >= -1001
t_2_3 - t_2_2 + 1000.000000 u_2_2_3 - 1.118223 s_2_2  + 1.118223 s_2_8  + 2000.000000 r_2_2_3 > 7.009825
t_1_4 - t_1_3 - 1001.236388 s_1_3  + 1.236388 s_1_8  > -985.804000
t_1_4 - t_2_3 - 1001.118223 s_2_3  + 1.118223 s_2_8  > -990.442153
t_2_4 - t_1_3 - 1001.236388 s_1_3  + 1.236388 s_1_8  > -985.804000
t_2_4 - t_2_3 - 1001.118223 s_2_3  + 1.118223 s_2_8  > -990.442153
s_1_3 + s_1_5 + 1000 r_1_3_5 >= 2
- s_1_3 - s_1_5 - 1000 r_1_3_5 >= -1001
t_1_3 - t_1_5 - 1000.000000 u_1_3_5 - 2.472776 s_1_5  + 1.236388 s_1_7  + 1.236388 s_1_8  + 2000.000000 r_1_3_5 > -993.354856
s_2_3 + s_2_5 + 1000 r_2_3_5 >= 2
- s_2_3 - s_2_5 - 1000 r_2_3_5 >= -1001
t_2_3 - t_2_5 - 1000.000000 u_2_3_5 - 2.236446 s_2_5  + 1.118223 s_2_7  + 1.118223 s_2_8  + 2000.000000 r_2_3_5 > -995.020594
t_1_6 - t_1_3 - 1001.236388 s_1_3  + 1.236388 s_1_8  > -985.804000
t_1_6 - t_2_3 - 1001.118223 s_2_3  + 1.118223 s_2_8  > -990.442153
t_2_6 - t_1_3 - 1001.236388 s_1_3  + 1.236388 s_1_8  > -985.804000
t_2_6 - t_2_3 - 1001.118223 s_2_3  + 1.118223 s_2_8  > -990.442153
s_1_3 + s_1_7 + 1000 r_1_3_7 >= 2
- s_1_3 - s_1_7 - 1000 r_1_3_7 >= -1001
t_1_3 - t_1_7 - 1000.000000 u_1_3_7 - 0.000000 s_1_7  + 2000.000000 r_1_3_7 > -981.705500
s_2_3 + s_2_7 + 1000 r_2_3_7 >= 2
- s_2_3 - s_2_7 - 1000 r_2_3_7 >= -1001
t_2_3 - t_2_7 - 1000.000000 u_2_3_7 - 0.000000 s_2_7  + 2000.000000 r_2_3_7 > -991.402857
t_1_3 - t_1_8 - 1000.000000 s_1_8  > -982.018478
t_1_3 - t_2_8 - 1000.000000 s_2_8  > -990.719062
t_2_3 - t_1_8 - 1000.000000 s_1_8  > -982.018478
t_2_3 - t_2_8 - 1000.000000 s_2_8  > -990.719062
s_1_4 + s_1_1 + 1000 r_1_1_4 >= 2
- s_1_4 - s_1_1 - 1000 r_1_1_4 >= -1001
t_1_4 - t_1_1 + 1000.000000 u_1_1_4 - 1.236388 s_1_1  + 1.236388 s_1_7  + 2000.000000 r_1_1_4 > 8.820067
s_2_4 + s_2_1 + 1000 r_2_1_4 >= 2
- s_2_4 - s_2_1 - 1000 r_2_1_4 >= -1001
t_2_4 - t_2_1 + 1000.000000 u_2_1_4 - 1.118223 s_2_1  + 1.118223 s_2_7  + 2000.000000 r_2_1_4 > 6.647218
s_1_4 + s_1_2 + 1000 r_1_2_4 >= 2
- s_1_4 - s_1_2 - 1000 r_1_2_4 >= -1001
t_1_4 - t_1_2 + 1000.000000 u_1_2_4 - 1.236388 s_1_2  + 1.236388 s_1_8  + 2000.000000 r_1_2_4 > 10.288500
s_2_4 + s_2_2 + 1000 r_2_2_4 >= 2
- s_2_4 - s_2_2 - 1000 r_2_2_4 >= -1001
t_2_4 - t_2_2 + 1000.000000 u_2_2_4 - 1.118223 s_2_2  + 1.118223 s_2_8  + 2000.000000 r_2_2_4 > 7.009825
s_1_4 + s_1_5 + 1000 r_1_4_5 >= 2
- s_1_4 - s_1_5 - 1000 r_1_4_5 >= -1001
t_1_4 - t_1_5 - 1000.000000 u_1_4_5 - 2.472776 s_1_5  + 1.236388 s_1_7  + 1.236388 s_1_8  + 2000.000000 r_1_4_5 > -993.354856
s_2_4 + s_2_5 + 1000 r_2_4_5 >= 2
- s_2_4 - s_2_5 - 1000 r_2_4_5 >= -1001
t_2_4 - t_2_5 - 1000.000000 u_2_4_5 - 2.236446 s_2_5  + 1.118223 s_2_7  + 1.118223 s_2_8  + 2000.000000 r_2_4_5 > -995.020594
t_1_6 - t_1_4 - 1002.472776 s_1_4  + 1.236388 s_1_3  + 1.236388 s_1_8  > -992.322056
t_1_6 - t_2_4 - 1002.236446 s_2_4  + 1.118223 s_2_3  + 1.118223 s_2_8  > -993.894889
t_2_6 - t_1_4 - 1002.472776 s_1_4  + 1.236388 s_1_3  + 1.236388 s_1_8  > -992.322056
t_2_6 - t_2_4 - 1002.236446 s_2_4  + 1.118223 s_2_3  + 1.118223 s_2_8  > -993.894889
s_1_4 + s_1_7 + 1000 r_1_4_7 >= 2
- s_1_4 - s_1_7 - 1000 r_1_4_7 >= -1001
t_1_4 - t_1_7 - 1000.000000 u_1_4_7 - 0.000000 s_1_7  + 2000.000000 r_1_4_7 > -981.705500
s_2_4 + s_2_7 + 1000 r_2_4_7 >= 2
- s_2_4 - s_2_7 - 1000 r_2_4_7 >= -1001
t_2_4 - t_2_7 - 1000.000000 u_2_4_7 - 0.000000 s_2_7  + 2000.000000 r_2_4_7 > -991.402857
t_1_4 - t_1_8 - 1000.000000 s_1_8  > -982.018478
t_1_4 - t_2_8 - 1000.000000 s_2_8  > -990.719062
t_2_4 - t_1_8 - 1000.000000 s_1_8  > -982.018478
t_2_4 - t_2_8 - 1000.000000 s_2_8  > -990.719062
s_1_5 + s_1_1 + 1000 r_1_1_5 >= 2
- s_1_5 - s_1_1 - 1000 r_1_1_5 >= -1001
t_1_5 - t_1_1 + 1000.000000 u_1_1_5 - 1.236388 s_1_1  + 1.236388 s_1_7  + 2000.000000 r_1_1_5 > 8.820067
s_2_5 + s_2_1 + 1000 r_2_1_5 >= 2
- s_2_5 - s_2_1 - 1000 r_2_1_5 >= -1001
t_2_5 - t_2_1 + 1000.000000 u_2_1_5 - 1.118223 s_2_1  + 1.118223 s_2_7  + 2000.000000 r_2_1_5 > 6.647218
s_1_5 + s_1_2 + 1000 r_1_2_5 >= 2
- s_1_5 - s_1_2 - 1000 r_1_2_5 >= -1001
t_1_5 - t_1_2 + 1000.000000 u_1_2_5 - 1.236388 s_1_2  + 1.236388 s_1_8  + 2000.000000 r_1_2_5 > 10.288500
s_2_5 + s_2_2 + 1000 r_2_2_5 >= 2
- s_2_5 - s_2_2 - 1000 r_2_2_5 >= -1001
t_2_5 - t_2_2 + 1000.000000 u_2_2_5 - 1.118223 s_2_2  + 1.118223 s_2_8  + 2000.000000 r_2_2_5 > 7.009825
s_1_5 + s_1_3 + 1000 r_1_3_5 >= 2
- s_1_5 - s_1_3 - 1000 r_1_3_5 >= -1001
t_1_5 - t_1_3 + 1000.000000 u_1_3_5 - 1.236388 s_1_3  + 1.236388 s_1_8  + 2000.000000 r_1_3_5 > 14.196000
s_2_5 + s_2_3 + 1000 r_2_3_5 >= 2
- s_2_5 - s_2_3 - 1000 r_2_3_5 >= -1001
t_2_5 - t_2_3 + 1000.000000 u_2_3_5 - 1.118223 s_2_3  + 1.118223 s_2_8  + 2000.000000 r_2_3_5 > 9.557847
s_1_5 + s_1_4 + 1000 r_1_4_5 >= 2
- s_1_5 - s_1_4 - 1000 r_1_4_5 >= -1001
t_1_5 - t_1_4 + 1000.000000 u_1_4_5 - 2.472776 s_1_4  + 1.236388 s_1_3  + 1.236388 s_1_8  + 2000.000000 r_1_4_5 > 7.677944
s_2_5 + s_2_4 + 1000 r_2_4_5 >= 2
- s_2_5 - s_2_4 - 1000 r_2_4_5 >= -1001
t_2_5 - t_2_4 + 1000.000000 u_2_4_5 - 2.236446 s_2_4  + 1.118223 s_2_3  + 1.118223 s_2_8  + 2000.000000 r_2_4_5 > 6.105111
t_1_6 - t_1_5 - 1002.472776 s_1_5  + 1.236388 s_1_7  + 1.236388 s_1_8  > -993.354856
t_1_6 - t_2_5 - 1002.236446 s_2_5  + 1.118223 s_2_7  + 1.118223 s_2_8  > -995.020594
t_2_6 - t_1_5 - 1002.472776 s_1_5  + 1.236388 s_1_7  + 1.236388 s_1_8  > -993.354856
t_2_6 - t_2_5 - 1002.236446 s_2_5  + 1.118223 s_2_7  + 1.118223 s_2_8  > -995.020594
t_1_5 - t_1_7 - 1000.000000 s_1_7  > -981.705500
t_1_5 - t_2_7 - 1000.000000 s_2_7  > -991.402857
t_2_5 - t_1_7 - 1000.000000 s_1_7  > -981.705500
t_2_5 - t_2_7 - 1000.000000 s_2_7  > -991.402857
t_1_5 - t_1_8 - 1000.000000 s_1_8  > -982.018478
t_1_5 - t_2_8 - 1000.000000 s_2_8  > -990.719062
t_2_5 - t_1_8 - 1000.000000 s_1_8  > -982.018478
t_2_5 - t_2_8 - 1000.000000 s_2_8  > -990.719062
s_1_7 + s_1_2 + 1000 r_1_2_7 >= 2
- s_1_7 - s_1_2 - 1000 r_1_2_7 >= -1001
t_1_7 - t_1_2 + 1000.000000 u_1_2_7 - 1.236388 s_1_2  + 1.236388 s_1_8  + 2000.000000 r_1_2_7 > 10.288500
s_2_7 + s_2_2 + 1000 r_2_2_7 >= 2
- s_2_7 - s_2_2 - 1000 r_2_2_7 >= -1001
t_2_7 - t_2_2 + 1000.000000 u_2_2_7 - 1.118223 s_2_2  + 1.118223 s_2_8  + 2000.000000 r_2_2_7 > 7.009825
s_1_7 + s_1_3 + 1000 r_1_3_7 >= 2
- s_1_7 - s_1_3 - 1000 r_1_3_7 >= -1001
t_1_7 - t_1_3 + 1000.000000 u_1_3_7 - 1.236388 s_1_3  + 1.236388 s_1_8  + 2000.000000 r_1_3_7 > 14.196000
s_2_7 + s_2_3 + 1000 r_2_3_7 >= 2
- s_2_7 - s_2_3 - 1000 r_2_3_7 >= -1001
t_2_7 - t_2_3 + 1000.000000 u_2_3_7 - 1.118223 s_2_3  + 1.118223 s_2_8  + 2000.000000 r_2_3_7 > 9.557847
s_1_7 + s_1_4 + 1000 r_1_4_7 >= 2
- s_1_7 - s_1_4 - 1000 r_1_4_7 >= -1001
t_1_7 - t_1_4 + 1000.000000 u_1_4_7 - 2.472776 s_1_4  + 1.236388 s_1_3  + 1.236388 s_1_8  + 2000.000000 r_1_4_7 > 7.677944
s_2_7 + s_2_4 + 1000 r_2_4_7 >= 2
- s_2_7 - s_2_4 - 1000 r_2_4_7 >= -1001
t_2_7 - t_2_4 + 1000.000000 u_2_4_7 - 2.236446 s_2_4  + 1.118223 s_2_3  + 1.118223 s_2_8  + 2000.000000 r_2_4_7 > 6.105111
s_1_7 + s_1_8 + 1000 r_1_7_8 >= 2
- s_1_7 - s_1_8 - 1000 r_1_7_8 >= -1001
t_1_7 - t_1_8 - 1000.000000 u_1_7_8 - 0.000000 s_1_8  + 2000.000000 r_1_7_8 > -982.018478
s_2_7 + s_2_8 + 1000 r_2_7_8 >= 2
- s_2_7 - s_2_8 - 1000 r_2_7_8 >= -1001
t_2_7 - t_2_8 - 1000.000000 u_2_7_8 - 0.000000 s_2_8  + 2000.000000 r_2_7_8 > -990.719062
s_1_8 + s_1_1 + 1000 r_1_1_8 >= 2
- s_1_8 - s_1_1 - 1000 r_1_1_8 >= -1001
t_1_8 - t_1_1 + 1000.000000 u_1_1_8 - 1.236388 s_1_1  + 1.236388 s_1_7  + 2000.000000 r_1_1_8 > 8.820067
s_2_8 + s_2_1 + 1000 r_2_1_8 >= 2
- s_2_8 - s_2_1 - 1000 r_2_1_8 >= -1001
t_2_8 - t_2_1 + 1000.000000 u_2_1_8 - 1.118223 s_2_1  + 1.118223 s_2_7  + 2000.000000 r_2_1_8 > 6.647218
s_1_8 + s_1_7 + 1000 r_1_7_8 >= 2
- s_1_8 - s_1_7 - 1000 r_1_7_8 >= -1001
t_1_8 - t_1_7 + 1000.000000 u_1_7_8 - 0.000000 s_1_7  + 2000.000000 r_1_7_8 > 18.294500
s_2_8 + s_2_7 + 1000 r_2_7_8 >= 2
- s_2_8 - s_2_7 - 1000 r_2_7_8 >= -1001
t_2_8 - t_2_7 + 1000.000000 u_2_7_8 - 0.000000 s_2_7  + 2000.000000 r_2_7_8 > 8.597143
Binary
s_1_1
s_2_1
s_1_2
s_2_2
s_1_3
s_2_3
s_1_4
s_2_4
s_1_5
s_2_5
s_1_6
s_2_6
s_1_7
s_2_7
s_1_8
s_2_8
u_1_1_2
r_1_1_2
u_2_1_2
r_2_1_2
u_1_1_3
r_1_1_3
u_2_1_3
r_2_1_3
u_1_1_4
r_1_1_4
u_2_1_4
r_2_1_4
u_1_1_5
r_1_1_5
u_2_1_5
r_2_1_5
u_1_1_8
r_1_1_8
u_2_1_8
r_2_1_8
u_1_2_3
r_1_2_3
u_2_2_3
r_2_2_3
u_1_2_4
r_1_2_4
u_2_2_4
r_2_2_4
u_1_2_5
r_1_2_5
u_2_2_5
r_2_2_5
u_1_2_7
r_1_2_7
u_2_2_7
r_2_2_7
u_1_3_5
r_1_3_5
u_2_3_5
r_2_3_5
u_1_3_7
r_1_3_7
u_2_3_7
r_2_3_7
u_1_4_5
r_1_4_5
u_2_4_5
r_2_4_5
u_1_4_7
r_1_4_7
u_2_4_7
r_2_4_7
u_1_7_8
r_1_7_8
u_2_7_8
r_2_7_8

End
